NAME : in_house_7_3
TYPE : TSP
DIMENSION : 7
EDGE_WEIGHT_TYPE : EXPLICIT
EDGE_WEIGHT_FORMAT : UPPER_ROW
COMMENT : INVERSION_SHIFT=5
EDGE_WEIGHT_SECTION
36
41
14
25
3
7
47
46
28
35
25
39
5
31
34
2
33
43
38
47
38
